c description: Perfect Matching Principle on 
c generator: CNFgen (0.9.0)
c copyright: (C) 2012-2020 Massimo Lauria <massimo.lauria@uniroma1.it>
c url: https://massimolauria.net/cnfgen
c
p cnf 40 121
-1 -2 0
1 2 0
-3 -4 0
-3 -5 0
-3 -6 0
-4 -5 0
-4 -6 0
-5 -6 0
3 4 5 6 0
-3 -7 0
-3 -8 0
-3 -9 0
-7 -8 0
-7 -9 0
-8 -9 0
3 7 8 9 0
-7 -10 0
-7 -11 0
-10 -11 0
7 10 11 0
12 0
13 0
14 0
15 0
-16 -17 0
16 17 0
0
-18 -19 0
18 19 0
0
-4 -10 0
-4 -20 0
-4 -21 0
-10 -20 0
-10 -21 0
-20 -21 0
4 10 20 21 0
-22 -23 0
22 23 0
-24 -25 0
-24 -26 0
-25 -26 0
24 25 26 0
-27 -28 0
27 28 0
-16 -20 0
-16 -29 0
-16 -30 0
-20 -29 0
-20 -30 0
-29 -30 0
16 20 29 30 0
31 0
-24 -29 0
24 29 0
-14 -25 0
-14 -32 0
-25 -32 0
14 25 32 0
-8 -22 0
-8 -33 0
-8 -34 0
-22 -33 0
-22 -34 0
-33 -34 0
8 22 33 34 0
-26 -30 0
-26 -35 0
-30 -35 0
26 30 35 0
-33 -35 0
-33 -36 0
-35 -36 0
33 35 36 0
-18 -27 0
-18 -31 0
-18 -37 0
-27 -31 0
-27 -37 0
-31 -37 0
18 27 31 37 0
38 0
0
1 0
0
39 0
-2 -40 0
2 40 0
-15 -40 0
15 40 0
-5 -12 0
-5 -32 0
-5 -36 0
-5 -38 0
-12 -32 0
-12 -36 0
-12 -38 0
-32 -36 0
-32 -38 0
-36 -38 0
5 12 32 36 38 0
0
0
-6 -28 0
-6 -37 0
-28 -37 0
6 28 37 0
-13 -19 0
-13 -34 0
-19 -34 0
13 19 34 0
0
-11 -17 0
-11 -23 0
-11 -39 0
-17 -23 0
-17 -39 0
-23 -39 0
11 17 23 39 0
21 0
9 0